NAME : B-n57-k9.869314.tour
COMMENT : Length = 869314
COMMENT : Found by LKH [Keld Helsgaun] Sun Dec 17 19:11:24 2017
TYPE : TOUR
DIMENSION : 65
TOUR_SECTION
1
55
44
15
45
14
27
40
63
34
43
21
12
35
20
61
57
23
64
54
30
8
38
3
17
24
58
7
33
41
4
51
47
65
2
46
25
53
60
11
18
32
56
10
29
28
19
59
6
48
37
22
42
52
26
16
9
62
5
31
50
36
49
39
13
-1
EOF
